100
300
50
0 0
23 18
44 32
75 52
92 74
39 72
16 3
15 11
20 4
2 64
99 64
3 31
96 82
95 70
56 30
82 54
9 8
38 60
63 72
26 86
46 88
3 34
0 97
65 90
60 0
76 8
71 32
86 8
55 100
80 70
6 45
1 35
15 3
22 54
2 49
67 39
18 77
87 62
46 95
12 21
64 16
10 13
16 95
24 98
59 72
15 42
34 7
35 55
56 58
53 21
61 9
0 0
40
40
30
40
50
60
70
70
60
40
50
40
30
60
60
40
70
40
70
60
40
50
60
60
70
40
40
30
40
50
60
70
70
60
40
50
40
30
60
60
40
70
40
70
60
40
50
60
60
70
